HUN,8,6,7
1,15,3,20,2,26,4,28,5,16,0,4
2,25,1,21,5,23,0,28,4,14,3,17
3,12,2,29,4,18,0,14,1,4,5,30
5,7,3,30,4,22,0,1,1,11,2,23
5,14,0,30,3,25,1,11,4,3,2,20
3,19,2,13,1,19,4,10,5,16,0,4
2,6,1,25,4,10,0,4,3,25,5,30
3,9,0,12,1,12,4,6,2,21,5,8
